(declare-const c_0 Real)
(declare-const c_1 Real)
(declare-const c_2 Real)
(declare-const c_3 Real)
(declare-const c_4 Real)
(declare-const c_5 Real)
(declare-const s_0 Real)
(declare-const s_1 Real)
(declare-const s_2 Real)
(declare-const s_3 Real)
(declare-const s_4 Real)
(declare-const s_5 Real)
(assert (forall ((p Real) (q Real) ) (=> (and (>= (+ (* 1024 1) (* 1 p ) ) 0) (>= (+ (* 1023 1) (* (- 1) p ) ) 0) (>= (+ (* 1024 1) (* 1 q ) ) 0) (>= (+ (* 1023 1) (* (- 1) q ) ) 0) ) (>= (+ (* 1 p s_1 ) (* 1 q s_2 ) (* 1 s_0 ) ) 0) )))
(assert (forall ((p Real) (q Real) ) (=> (and (>= (+ (* 1024 1) (* 1 p ) ) 0) (>= (+ (* 1023 1) (* (- 1) p ) ) 0) (>= (+ (* 1024 1) (* 1 q ) ) 0) (>= (+ (* 1023 1) (* (- 1) q ) ) 0) ) (>= (+ (* 1 c_0 ) (* 1 c_1 p ) (* 1 c_2 q ) ) 0) )))
(assert (forall ((p Real) (q Real) ) (=> (and (>= (+ (* (- 1) 1) (* 1 p ) (* (- 1) q ) ) 0) (>= (+ (* (- 1) 1) (* 1 q ) ) 0) (>= (+ (* (- 1) 1) (* 1 p ) ) 0) (>= (+ (* (- 1) 1) (* (- 1) p ) (* 1 q ) ) 0) (>= (+ (* 1024 1) (* 1 p ) ) 0) (>= (+ (* 1024 1) (* 1 q ) ) 0) (>= (+ (* 1023 1) (* (- 1) q ) ) 0) (>= (+ (* 1023 1) (* (- 1) p ) ) 0) (>= (+ (* 1 p s_1 ) (* 1 q s_2 ) (* 1 s_0 ) ) 0) ) (>= (+ (* 1 p s_1 ) (* 1 q s_2 ) (* 1 s_0 ) (* (- 1) s_2 ) ) 0) )))
(assert (forall ((p Real) (q Real) ) (=> (and (>= (+ (* (- 1) 1) (* 1 p ) (* (- 1) q ) ) 0) (>= (+ (* (- 1) 1) (* 1 q ) ) 0) (>= (+ (* (- 1) 1) (* 1 p ) ) 0) (>= (+ (* (- 1) 1) (* (- 1) p ) (* 1 q ) ) 0) (>= (+ (* 1024 1) (* 1 p ) ) 0) (>= (+ (* 1024 1) (* 1 q ) ) 0) (>= (+ (* 1023 1) (* (- 1) q ) ) 0) (>= (+ (* 1023 1) (* (- 1) p ) ) 0) (>= (+ (* 1 p s_1 ) (* 1 q s_2 ) (* 1 s_0 ) ) 0) ) (>= (+ (* 1 c_0 ) (* 1 c_1 p ) (* (- 1) c_2 ) (* 1 c_2 q ) ) 0) )))
(assert (forall ((p Real) (q Real) ) (=> (and (>= (+ (* (- 1) 1) (* 1 p ) (* (- 1) q ) ) 0) (>= (+ (* (- 1) 1) (* 1 q ) ) 0) (>= (+ (* (- 1) 1) (* 1 p ) ) 0) (>= (+ (* (- 1) 1) (* (- 1) p ) (* 1 q ) ) 0) (>= (+ (* 1024 1) (* 1 p ) ) 0) (>= (+ (* 1024 1) (* 1 q ) ) 0) (>= (+ (* 1023 1) (* (- 1) q ) ) 0) (>= (+ (* 1023 1) (* (- 1) p ) ) 0) (>= (+ (* 1 p s_1 ) (* 1 q s_2 ) (* 1 s_0 ) ) 0) ) (>= (+ (* (- 1) 1) (* 1 c_2 ) ) 0) )))
(assert (forall ((p Real) (q Real) ) (=> (and (>= (+ (* (- 1) 1) (* (- 1) p ) (* 1 q ) ) 0) (>= (+ (* (- 1) p ) (* 1 q ) ) 0) (>= (+ (* (- 1) 1) (* 1 q ) ) 0) (>= (+ (* (- 1) 1) (* 1 p ) ) 0) (>= (+ (* 1024 1) (* 1 p ) ) 0) (>= (+ (* 1024 1) (* 1 q ) ) 0) (>= (+ (* 1023 1) (* (- 1) q ) ) 0) (>= (+ (* 1023 1) (* (- 1) p ) ) 0) (>= (+ (* 1 p s_1 ) (* 1 q s_2 ) (* 1 s_0 ) ) 0) ) (>= (+ (* 1 p s_1 ) (* 1 q s_2 ) (* 1 s_0 ) (* (- 1) s_1 ) ) 0) )))
(assert (forall ((p Real) (q Real) ) (=> (and (>= (+ (* (- 1) 1) (* (- 1) p ) (* 1 q ) ) 0) (>= (+ (* (- 1) p ) (* 1 q ) ) 0) (>= (+ (* (- 1) 1) (* 1 q ) ) 0) (>= (+ (* (- 1) 1) (* 1 p ) ) 0) (>= (+ (* 1024 1) (* 1 p ) ) 0) (>= (+ (* 1024 1) (* 1 q ) ) 0) (>= (+ (* 1023 1) (* (- 1) q ) ) 0) (>= (+ (* 1023 1) (* (- 1) p ) ) 0) (>= (+ (* 1 p s_1 ) (* 1 q s_2 ) (* 1 s_0 ) ) 0) ) (>= (+ (* 1 c_0 ) (* (- 1) c_1 ) (* 1 c_1 p ) (* 1 c_2 q ) ) 0) )))
(assert (forall ((p Real) (q Real) ) (=> (and (>= (+ (* (- 1) 1) (* (- 1) p ) (* 1 q ) ) 0) (>= (+ (* (- 1) p ) (* 1 q ) ) 0) (>= (+ (* (- 1) 1) (* 1 q ) ) 0) (>= (+ (* (- 1) 1) (* 1 p ) ) 0) (>= (+ (* 1024 1) (* 1 p ) ) 0) (>= (+ (* 1024 1) (* 1 q ) ) 0) (>= (+ (* 1023 1) (* (- 1) q ) ) 0) (>= (+ (* 1023 1) (* (- 1) p ) ) 0) (>= (+ (* 1 p s_1 ) (* 1 q s_2 ) (* 1 s_0 ) ) 0) ) (>= (+ (* (- 1) 1) (* 1 c_1 ) ) 0) )))
(assert (forall ((p Real) (q Real) ) (=> (and (>= (+ (* 1 p ) (* (- 1) q ) ) 0) (>= (+ (* (- 1) p ) (* 1 q ) ) 0) (>= (+ (* (- 1) 1) (* 1 q ) ) 0) (>= (+ (* (- 1) 1) (* 1 p ) ) 0) (>= (+ (* (- 1) 1) (* (- 1) p ) (* 1 q ) ) 0) (>= (+ (* 1024 1) (* 1 p ) ) 0) (>= (+ (* 1024 1) (* 1 q ) ) 0) (>= (+ (* 1023 1) (* (- 1) q ) ) 0) (>= (+ (* 1023 1) (* (- 1) p ) ) 0) (>= (+ (* 1 p s_1 ) (* 1 q s_2 ) (* 1 s_0 ) ) 0) ) (>= (+ (* 1 p s_1 ) (* 1 q s_2 ) (* 1 s_0 ) ) 0) )))
(assert (forall ((p Real) (q Real) ) (=> (and (>= (+ (* 1 p ) (* (- 1) q ) ) 0) (>= (+ (* (- 1) p ) (* 1 q ) ) 0) (>= (+ (* (- 1) 1) (* 1 q ) ) 0) (>= (+ (* (- 1) 1) (* 1 p ) ) 0) (>= (+ (* (- 1) 1) (* (- 1) p ) (* 1 q ) ) 0) (>= (+ (* 1024 1) (* 1 p ) ) 0) (>= (+ (* 1024 1) (* 1 q ) ) 0) (>= (+ (* 1023 1) (* (- 1) q ) ) 0) (>= (+ (* 1023 1) (* (- 1) p ) ) 0) (>= (+ (* 1 p s_1 ) (* 1 q s_2 ) (* 1 s_0 ) ) 0) ) (>= (+ (* 1 c_0 ) (* 1 c_1 p ) (* 1 c_2 q ) ) 0) )))
(assert (forall ((p Real) (q Real) ) (=> (and (>= (+ (* 1 p ) (* (- 1) q ) ) 0) (>= (+ (* (- 1) p ) (* 1 q ) ) 0) (>= (+ (* (- 1) 1) (* 1 q ) ) 0) (>= (+ (* (- 1) 1) (* 1 p ) ) 0) (>= (+ (* (- 1) 1) (* (- 1) p ) (* 1 q ) ) 0) (>= (+ (* 1024 1) (* 1 p ) ) 0) (>= (+ (* 1024 1) (* 1 q ) ) 0) (>= (+ (* 1023 1) (* (- 1) q ) ) 0) (>= (+ (* 1023 1) (* (- 1) p ) ) 0) (>= (+ (* 1 p s_1 ) (* 1 q s_2 ) (* 1 s_0 ) ) 0) ) (>= (* (- 1) 1) 0) )))
(assert (forall ((p Real) (q Real) ) (=> (and (>= (+ (* (- 1) 1) (* 1 p ) (* (- 1) q ) ) 0) (>= (+ (* (- 1) 1) (* 1 q ) ) 0) (>= (+ (* (- 1) 1) (* 1 p ) ) 0) (>= (+ (* 1024 1) (* 1 p ) ) 0) (>= (+ (* 1024 1) (* 1 q ) ) 0) (>= (+ (* 1023 1) (* (- 1) q ) ) 0) (>= (+ (* 1023 1) (* (- 1) p ) ) 0) (>= (+ (* 1 p s_1 ) (* 1 q s_2 ) (* 1 s_0 ) ) 0) ) (>= (+ (* 1 p s_1 ) (* 1 q s_2 ) (* 1 s_0 ) (* (- 1) s_2 ) ) 0) )))
(assert (forall ((p Real) (q Real) ) (=> (and (>= (+ (* (- 1) 1) (* 1 p ) (* (- 1) q ) ) 0) (>= (+ (* (- 1) 1) (* 1 q ) ) 0) (>= (+ (* (- 1) 1) (* 1 p ) ) 0) (>= (+ (* 1024 1) (* 1 p ) ) 0) (>= (+ (* 1024 1) (* 1 q ) ) 0) (>= (+ (* 1023 1) (* (- 1) q ) ) 0) (>= (+ (* 1023 1) (* (- 1) p ) ) 0) (>= (+ (* 1 p s_1 ) (* 1 q s_2 ) (* 1 s_0 ) ) 0) ) (>= (+ (* 1 c_0 ) (* 1 c_1 p ) (* (- 1) c_2 ) (* 1 c_2 q ) ) 0) )))
(assert (forall ((p Real) (q Real) ) (=> (and (>= (+ (* (- 1) 1) (* 1 p ) (* (- 1) q ) ) 0) (>= (+ (* (- 1) 1) (* 1 q ) ) 0) (>= (+ (* (- 1) 1) (* 1 p ) ) 0) (>= (+ (* 1024 1) (* 1 p ) ) 0) (>= (+ (* 1024 1) (* 1 q ) ) 0) (>= (+ (* 1023 1) (* (- 1) q ) ) 0) (>= (+ (* 1023 1) (* (- 1) p ) ) 0) (>= (+ (* 1 p s_1 ) (* 1 q s_2 ) (* 1 s_0 ) ) 0) ) (>= (+ (* (- 1) 1) (* 1 c_2 ) ) 0) )))
(assert (forall ((p Real) (q Real) ) (=> (and (>= (+ (* (- 1) 1) (* (- 1) p ) (* 1 q ) ) 0) (>= (+ (* (- 1) p ) (* 1 q ) ) 0) (>= (+ (* (- 1) 1) (* 1 q ) ) 0) (>= (+ (* (- 1) 1) (* 1 p ) ) 0) (>= (+ (* (- 1) 1) (* 1 p ) (* (- 1) q ) ) 0) (>= (+ (* 1024 1) (* 1 p ) ) 0) (>= (+ (* 1024 1) (* 1 q ) ) 0) (>= (+ (* 1023 1) (* (- 1) q ) ) 0) (>= (+ (* 1023 1) (* (- 1) p ) ) 0) (>= (+ (* 1 p s_1 ) (* 1 q s_2 ) (* 1 s_0 ) ) 0) ) (>= (+ (* 1 p s_1 ) (* 1 q s_2 ) (* 1 s_0 ) (* (- 1) s_1 ) ) 0) )))
(assert (forall ((p Real) (q Real) ) (=> (and (>= (+ (* (- 1) 1) (* (- 1) p ) (* 1 q ) ) 0) (>= (+ (* (- 1) p ) (* 1 q ) ) 0) (>= (+ (* (- 1) 1) (* 1 q ) ) 0) (>= (+ (* (- 1) 1) (* 1 p ) ) 0) (>= (+ (* (- 1) 1) (* 1 p ) (* (- 1) q ) ) 0) (>= (+ (* 1024 1) (* 1 p ) ) 0) (>= (+ (* 1024 1) (* 1 q ) ) 0) (>= (+ (* 1023 1) (* (- 1) q ) ) 0) (>= (+ (* 1023 1) (* (- 1) p ) ) 0) (>= (+ (* 1 p s_1 ) (* 1 q s_2 ) (* 1 s_0 ) ) 0) ) (>= (+ (* 1 c_0 ) (* (- 1) c_1 ) (* 1 c_1 p ) (* 1 c_2 q ) ) 0) )))
(assert (forall ((p Real) (q Real) ) (=> (and (>= (+ (* (- 1) 1) (* (- 1) p ) (* 1 q ) ) 0) (>= (+ (* (- 1) p ) (* 1 q ) ) 0) (>= (+ (* (- 1) 1) (* 1 q ) ) 0) (>= (+ (* (- 1) 1) (* 1 p ) ) 0) (>= (+ (* (- 1) 1) (* 1 p ) (* (- 1) q ) ) 0) (>= (+ (* 1024 1) (* 1 p ) ) 0) (>= (+ (* 1024 1) (* 1 q ) ) 0) (>= (+ (* 1023 1) (* (- 1) q ) ) 0) (>= (+ (* 1023 1) (* (- 1) p ) ) 0) (>= (+ (* 1 p s_1 ) (* 1 q s_2 ) (* 1 s_0 ) ) 0) ) (>= (+ (* (- 1) 1) (* 1 c_1 ) ) 0) )))
(assert (forall ((p Real) (q Real) ) (=> (and (>= (+ (* 1 p ) (* (- 1) q ) ) 0) (>= (+ (* (- 1) p ) (* 1 q ) ) 0) (>= (+ (* (- 1) 1) (* 1 q ) ) 0) (>= (+ (* (- 1) 1) (* 1 p ) ) 0) (>= (+ (* (- 1) 1) (* 1 p ) (* (- 1) q ) ) 0) (>= (+ (* 1024 1) (* 1 p ) ) 0) (>= (+ (* 1024 1) (* 1 q ) ) 0) (>= (+ (* 1023 1) (* (- 1) q ) ) 0) (>= (+ (* 1023 1) (* (- 1) p ) ) 0) (>= (+ (* 1 p s_1 ) (* 1 q s_2 ) (* 1 s_0 ) ) 0) ) (>= (+ (* 1 p s_1 ) (* 1 q s_2 ) (* 1 s_0 ) ) 0) )))
(assert (forall ((p Real) (q Real) ) (=> (and (>= (+ (* 1 p ) (* (- 1) q ) ) 0) (>= (+ (* (- 1) p ) (* 1 q ) ) 0) (>= (+ (* (- 1) 1) (* 1 q ) ) 0) (>= (+ (* (- 1) 1) (* 1 p ) ) 0) (>= (+ (* (- 1) 1) (* 1 p ) (* (- 1) q ) ) 0) (>= (+ (* 1024 1) (* 1 p ) ) 0) (>= (+ (* 1024 1) (* 1 q ) ) 0) (>= (+ (* 1023 1) (* (- 1) q ) ) 0) (>= (+ (* 1023 1) (* (- 1) p ) ) 0) (>= (+ (* 1 p s_1 ) (* 1 q s_2 ) (* 1 s_0 ) ) 0) ) (>= (+ (* 1 c_0 ) (* 1 c_1 p ) (* 1 c_2 q ) ) 0) )))
(assert (forall ((p Real) (q Real) ) (=> (and (>= (+ (* 1 p ) (* (- 1) q ) ) 0) (>= (+ (* (- 1) p ) (* 1 q ) ) 0) (>= (+ (* (- 1) 1) (* 1 q ) ) 0) (>= (+ (* (- 1) 1) (* 1 p ) ) 0) (>= (+ (* (- 1) 1) (* 1 p ) (* (- 1) q ) ) 0) (>= (+ (* 1024 1) (* 1 p ) ) 0) (>= (+ (* 1024 1) (* 1 q ) ) 0) (>= (+ (* 1023 1) (* (- 1) q ) ) 0) (>= (+ (* 1023 1) (* (- 1) p ) ) 0) (>= (+ (* 1 p s_1 ) (* 1 q s_2 ) (* 1 s_0 ) ) 0) ) (>= (* (- 1) 1) 0) )))
(assert (forall ((p Real) (q Real) ) (=> (and (>= (* (- 1) q ) 0) (>= (+ (* 1024 1) (* 1 p ) ) 0) (>= (+ (* 1024 1) (* 1 q ) ) 0) (>= (+ (* 1023 1) (* (- 1) q ) ) 0) (>= (+ (* 1023 1) (* (- 1) p ) ) 0) (>= (+ (* 1 p s_1 ) (* 1 q s_2 ) (* 1 s_0 ) ) 0) ) (>= (+ (* 1 p s_4 ) (* 1 q s_5 ) (* 1 s_3 ) ) 0) )))
(assert (forall ((p Real) (q Real) ) (=> (and (>= (* (- 1) q ) 0) (>= (+ (* 1024 1) (* 1 p ) ) 0) (>= (+ (* 1024 1) (* 1 q ) ) 0) (>= (+ (* 1023 1) (* (- 1) q ) ) 0) (>= (+ (* 1023 1) (* (- 1) p ) ) 0) (>= (+ (* 1 p s_1 ) (* 1 q s_2 ) (* 1 s_0 ) ) 0) ) (>= (+ (* 1 c_3 ) (* 1 c_4 p ) (* 1 c_5 q ) ) 0) )))
(assert (forall ((p Real) (q Real) ) (=> (and (>= (* (- 1) p ) 0) (>= (* (- 1) q ) 0) (>= (+ (* 1024 1) (* 1 p ) ) 0) (>= (+ (* 1024 1) (* 1 q ) ) 0) (>= (+ (* 1023 1) (* (- 1) q ) ) 0) (>= (+ (* 1023 1) (* (- 1) p ) ) 0) (>= (+ (* 1 p s_1 ) (* 1 q s_2 ) (* 1 s_0 ) ) 0) ) (>= (+ (* 1 p s_4 ) (* 1 q s_5 ) (* 1 s_3 ) ) 0) )))
(assert (forall ((p Real) (q Real) ) (=> (and (>= (* (- 1) p ) 0) (>= (* (- 1) q ) 0) (>= (+ (* 1024 1) (* 1 p ) ) 0) (>= (+ (* 1024 1) (* 1 q ) ) 0) (>= (+ (* 1023 1) (* (- 1) q ) ) 0) (>= (+ (* 1023 1) (* (- 1) p ) ) 0) (>= (+ (* 1 p s_1 ) (* 1 q s_2 ) (* 1 s_0 ) ) 0) ) (>= (+ (* 1 c_3 ) (* 1 c_4 p ) (* 1 c_5 q ) ) 0) )))
(assert (forall ((p Real) (q Real) ) (=> (and (>= (+ (* 1 p ) (* (- 1) q ) ) 0) (>= (* (- 1) q ) 0) (>= (+ (* 1024 1) (* 1 p ) ) 0) (>= (+ (* 1024 1) (* 1 q ) ) 0) (>= (+ (* 1023 1) (* (- 1) q ) ) 0) (>= (+ (* 1023 1) (* (- 1) p ) ) 0) (>= (+ (* 1 p s_1 ) (* 1 q s_2 ) (* 1 s_0 ) ) 0) ) (>= (+ (* 1 p s_4 ) (* 1 q s_5 ) (* 1 s_3 ) ) 0) )))
(assert (forall ((p Real) (q Real) ) (=> (and (>= (+ (* 1 p ) (* (- 1) q ) ) 0) (>= (* (- 1) q ) 0) (>= (+ (* 1024 1) (* 1 p ) ) 0) (>= (+ (* 1024 1) (* 1 q ) ) 0) (>= (+ (* 1023 1) (* (- 1) q ) ) 0) (>= (+ (* 1023 1) (* (- 1) p ) ) 0) (>= (+ (* 1 p s_1 ) (* 1 q s_2 ) (* 1 s_0 ) ) 0) ) (>= (+ (* 1 c_3 ) (* 1 c_4 p ) (* 1 c_5 q ) ) 0) )))
(assert (forall ((p Real) (q Real) ) (=> (and (>= (* (- 1) q ) 0) (>= (* (- 1) p ) 0) (>= (+ (* 1024 1) (* 1 p ) ) 0) (>= (+ (* 1024 1) (* 1 q ) ) 0) (>= (+ (* 1023 1) (* (- 1) q ) ) 0) (>= (+ (* 1023 1) (* (- 1) p ) ) 0) (>= (+ (* 1 p s_1 ) (* 1 q s_2 ) (* 1 s_0 ) ) 0) ) (>= (+ (* 1 p s_4 ) (* 1 q s_5 ) (* 1 s_3 ) ) 0) )))
(assert (forall ((p Real) (q Real) ) (=> (and (>= (* (- 1) q ) 0) (>= (* (- 1) p ) 0) (>= (+ (* 1024 1) (* 1 p ) ) 0) (>= (+ (* 1024 1) (* 1 q ) ) 0) (>= (+ (* 1023 1) (* (- 1) q ) ) 0) (>= (+ (* 1023 1) (* (- 1) p ) ) 0) (>= (+ (* 1 p s_1 ) (* 1 q s_2 ) (* 1 s_0 ) ) 0) ) (>= (+ (* 1 c_3 ) (* 1 c_4 p ) (* 1 c_5 q ) ) 0) )))
(assert (forall ((p Real) (q Real) ) (=> (and (>= (* (- 1) p ) 0) (>= (+ (* 1024 1) (* 1 p ) ) 0) (>= (+ (* 1024 1) (* 1 q ) ) 0) (>= (+ (* 1023 1) (* (- 1) q ) ) 0) (>= (+ (* 1023 1) (* (- 1) p ) ) 0) (>= (+ (* 1 p s_1 ) (* 1 q s_2 ) (* 1 s_0 ) ) 0) ) (>= (+ (* 1 p s_4 ) (* 1 q s_5 ) (* 1 s_3 ) ) 0) )))
(assert (forall ((p Real) (q Real) ) (=> (and (>= (* (- 1) p ) 0) (>= (+ (* 1024 1) (* 1 p ) ) 0) (>= (+ (* 1024 1) (* 1 q ) ) 0) (>= (+ (* 1023 1) (* (- 1) q ) ) 0) (>= (+ (* 1023 1) (* (- 1) p ) ) 0) (>= (+ (* 1 p s_1 ) (* 1 q s_2 ) (* 1 s_0 ) ) 0) ) (>= (+ (* 1 c_3 ) (* 1 c_4 p ) (* 1 c_5 q ) ) 0) )))
(assert (forall ((p Real) (q Real) ) (=> (and (>= (+ (* 1 p ) (* (- 1) q ) ) 0) (>= (* (- 1) p ) 0) (>= (+ (* 1024 1) (* 1 p ) ) 0) (>= (+ (* 1024 1) (* 1 q ) ) 0) (>= (+ (* 1023 1) (* (- 1) q ) ) 0) (>= (+ (* 1023 1) (* (- 1) p ) ) 0) (>= (+ (* 1 p s_1 ) (* 1 q s_2 ) (* 1 s_0 ) ) 0) ) (>= (+ (* 1 p s_4 ) (* 1 q s_5 ) (* 1 s_3 ) ) 0) )))
(assert (forall ((p Real) (q Real) ) (=> (and (>= (+ (* 1 p ) (* (- 1) q ) ) 0) (>= (* (- 1) p ) 0) (>= (+ (* 1024 1) (* 1 p ) ) 0) (>= (+ (* 1024 1) (* 1 q ) ) 0) (>= (+ (* 1023 1) (* (- 1) q ) ) 0) (>= (+ (* 1023 1) (* (- 1) p ) ) 0) (>= (+ (* 1 p s_1 ) (* 1 q s_2 ) (* 1 s_0 ) ) 0) ) (>= (+ (* 1 c_3 ) (* 1 c_4 p ) (* 1 c_5 q ) ) 0) )))
(assert (forall ((p Real) (q Real) ) (=> (and (>= (* (- 1) q ) 0) (>= (+ (* (- 1) p ) (* 1 q ) ) 0) (>= (+ (* 1024 1) (* 1 p ) ) 0) (>= (+ (* 1024 1) (* 1 q ) ) 0) (>= (+ (* 1023 1) (* (- 1) q ) ) 0) (>= (+ (* 1023 1) (* (- 1) p ) ) 0) (>= (+ (* 1 p s_1 ) (* 1 q s_2 ) (* 1 s_0 ) ) 0) ) (>= (+ (* 1 p s_4 ) (* 1 q s_5 ) (* 1 s_3 ) ) 0) )))
(assert (forall ((p Real) (q Real) ) (=> (and (>= (* (- 1) q ) 0) (>= (+ (* (- 1) p ) (* 1 q ) ) 0) (>= (+ (* 1024 1) (* 1 p ) ) 0) (>= (+ (* 1024 1) (* 1 q ) ) 0) (>= (+ (* 1023 1) (* (- 1) q ) ) 0) (>= (+ (* 1023 1) (* (- 1) p ) ) 0) (>= (+ (* 1 p s_1 ) (* 1 q s_2 ) (* 1 s_0 ) ) 0) ) (>= (+ (* 1 c_3 ) (* 1 c_4 p ) (* 1 c_5 q ) ) 0) )))
(assert (forall ((p Real) (q Real) ) (=> (and (>= (* (- 1) p ) 0) (>= (+ (* (- 1) p ) (* 1 q ) ) 0) (>= (+ (* 1024 1) (* 1 p ) ) 0) (>= (+ (* 1024 1) (* 1 q ) ) 0) (>= (+ (* 1023 1) (* (- 1) q ) ) 0) (>= (+ (* 1023 1) (* (- 1) p ) ) 0) (>= (+ (* 1 p s_1 ) (* 1 q s_2 ) (* 1 s_0 ) ) 0) ) (>= (+ (* 1 p s_4 ) (* 1 q s_5 ) (* 1 s_3 ) ) 0) )))
(assert (forall ((p Real) (q Real) ) (=> (and (>= (* (- 1) p ) 0) (>= (+ (* (- 1) p ) (* 1 q ) ) 0) (>= (+ (* 1024 1) (* 1 p ) ) 0) (>= (+ (* 1024 1) (* 1 q ) ) 0) (>= (+ (* 1023 1) (* (- 1) q ) ) 0) (>= (+ (* 1023 1) (* (- 1) p ) ) 0) (>= (+ (* 1 p s_1 ) (* 1 q s_2 ) (* 1 s_0 ) ) 0) ) (>= (+ (* 1 c_3 ) (* 1 c_4 p ) (* 1 c_5 q ) ) 0) )))
(assert (forall ((p Real) (q Real) ) (=> (and (>= (+ (* 1 p ) (* (- 1) q ) ) 0) (>= (+ (* (- 1) p ) (* 1 q ) ) 0) (>= (+ (* 1024 1) (* 1 p ) ) 0) (>= (+ (* 1024 1) (* 1 q ) ) 0) (>= (+ (* 1023 1) (* (- 1) q ) ) 0) (>= (+ (* 1023 1) (* (- 1) p ) ) 0) (>= (+ (* 1 p s_1 ) (* 1 q s_2 ) (* 1 s_0 ) ) 0) ) (>= (+ (* 1 p s_4 ) (* 1 q s_5 ) (* 1 s_3 ) ) 0) )))
(assert (forall ((p Real) (q Real) ) (=> (and (>= (+ (* 1 p ) (* (- 1) q ) ) 0) (>= (+ (* (- 1) p ) (* 1 q ) ) 0) (>= (+ (* 1024 1) (* 1 p ) ) 0) (>= (+ (* 1024 1) (* 1 q ) ) 0) (>= (+ (* 1023 1) (* (- 1) q ) ) 0) (>= (+ (* 1023 1) (* (- 1) p ) ) 0) (>= (+ (* 1 p s_1 ) (* 1 q s_2 ) (* 1 s_0 ) ) 0) ) (>= (+ (* 1 c_3 ) (* 1 c_4 p ) (* 1 c_5 q ) ) 0) )))

(check-sat)
(get-model)
